15 90 999999 0 1.1
30.0 40.0  0 
37.0 52.0   7 
49.0 49.0    30
52.0 64.0    16
20.0 26.0    9 
40.0 30.0    21
21.0 47.0    15
17.0 63.0    19
31.0 62.0    23
52.0 33.0    11
51.0 21.0    5 
42.0 41.0    19
31.0 32.0    29
5.0 25.0     23
12.0 42.0    21
36.0 16.0    10
